<number of tasks>
50

<cycle time>
1000

<order strength>
0.896


<task times>
1 650
2 456
3 485
4 552
5 444
6 805
7 359
8 362
9 555
10 613
11 495
12 611
13 380
14 534
15 578
16 608
17 602
18 525
19 539
20 597
21 652
22 383
23 636
24 410
25 482
26 405
27 641
28 489
29 591
30 518
31 276
32 609
33 493
34 555
35 301
36 481
37 444
38 631
39 311
40 470
41 553
42 438
43 520
44 466
45 440
46 527
47 555
48 641
49 528
50 472

<precedence relations>
1,4
1,5
2,4
2,5
3,4
3,5
4,6
4,7
5,6
5,7
6,8
6,9
6,10
7,8
7,9
7,10
8,11
8,12
9,11
9,12
9,13
10,11
10,12
10,13
11,14
12,14
12,15
13,14
13,15
14,16
14,18
15,16
15,17
15,18
16,19
16,20
17,25
18,19
18,20
19,21
19,22
19,23
20,21
20,22
20,23
21,24
22,25
22,26
23,24
23,25
23,26
24,27
24,28
25,27
25,28
26,33
26,34
27,29
27,30
28,29
28,30
29,31
29,32
29,33
30,31
30,32
30,33
31,34
31,38
32,34
33,35
33,36
34,37
34,40
34,43
34,45
35,37
35,38
35,39
35,40
36,38
36,42
37,44
38,41
38,43
38,45
39,42
39,43
39,44
40,42
42,46
44,47
46,48
46,50
47,48
47,49
47,50

<end>
